(set-info :status unknown)
(declare-const symbol_32 (_ BitVec 32))
(declare-const symbol_27 (_ BitVec 32))
(declare-const symbol_10 (_ BitVec 32))
(declare-const symbol_4 (_ BitVec 32))
(declare-const symbol_28 (_ BitVec 32))
(declare-const symbol_0 (_ BitVec 32))
(declare-const symbol_16 (_ BitVec 32))
(declare-const symbol_24 (_ BitVec 32))
(declare-const symbol_6 (_ BitVec 32))
(declare-const symbol_1 (_ BitVec 32))
(declare-const symbol_22 (_ BitVec 32))
(declare-const symbol_18 (_ BitVec 32))
(declare-const symbol_30 (_ BitVec 32))
(declare-const symbol_2 (_ BitVec 32))
(declare-const symbol_20 (_ BitVec 32))
(declare-const symbol_13 (_ BitVec 32))
(declare-const symbol_12 (_ BitVec 32))
(declare-const symbol_8 (_ BitVec 32))
(assert (not (not (= symbol_32 (_ bv2 32)))))
(assert (not (not (= symbol_30 (_ bv2 32)))))
(assert (not (not (= symbol_28 (_ bv2 32)))))
(assert (not (not (= symbol_27 (_ bv2 32)))))
(assert (not (not (= symbol_24 (_ bv2 32)))))
(assert (not (not (= symbol_22 (_ bv2 32)))))
(assert (not (not (= symbol_20 (_ bv2 32)))))
(assert (not (not (= symbol_18 (_ bv2 32)))))
(assert (not (not (= symbol_16 (_ bv2 32)))))
(assert (not (not (= symbol_13 (_ bv2 32)))))
(assert (not (not (= symbol_12 (_ bv2 32)))))
(assert (not (not (= symbol_10 (_ bv2 32)))))
(assert (not (not (= symbol_8 (_ bv2 32)))))
(assert (not (not (= symbol_6 (_ bv2 32)))))
(assert (not (not (= symbol_4 (_ bv2 32)))))
(assert (not (not (= symbol_2 (_ bv2 32)))))
(assert (not (not (= symbol_1 (_ bv2 32)))))
(assert (not (not (= symbol_0 (_ bv2 32)))))
(check-sat)